c 1 ASH_INTERNAL_GLOB
c 2 NOMMU
c 3 SHELL_ASH
c 4 ASH
c 5 ASH_JOB_CONTROL
c 6 ASH_SLEEP
c 7 SH_IS_ASH
c 8 BASH_IS_ASH
p cnf 16 30
16 0
3 4 7 8 -9 0
-3 9 0
-4 9 0
-7 9 0
-8 9 0
-2 -10 0
3 -10 0
9 -10 0
2 -3 -9 10 0
-6 10 -11 0
6 11 0
-10 11 0
-2 -5 -12 0
2 12 0
5 12 0
3 4 -13 0
-3 13 0
-4 13 0
-2 -14 0
3 -14 0
13 -14 0
2 -3 -13 14 0
-1 14 -15 0
1 15 0
-14 15 0
15 -16 0
12 -16 0
11 -16 0
-15 -12 -11 16 0
